data/CVRPLIB/Vrp-Set-XML100/instances/XML100_3114_03.vrp
NAME : XML100_3114_03
COMMENT : Generated by Queiroga, Sadykov, Uchoa, and Vidal (2021)
TYPE : CVRP
DIMENSION : 101
EDGE_WEIGHT_TYPE : EUC_2D
CAPACITY : 13
NODE_COORD_SECTION
1    0    0   
2    188  983 
3    70   246 
4    985  277 
5    327  119 
6    144  519 
7    399  465 
8    553  974 
9    222  448 
10   796  374 
11   446  869 
12   4    864 
13   820  950 
14   669  320 
15   837  417 
16   833  957 
17   401  9   
18   5    647 
19   848  124 
20   716  882 
21   68   305 
22   541  597 
23   877  713 
24   484  500 
25   112  748 
26   603  877 
27   670  688 
28   81   855 
29   354  623 
30   857  245 
31   62   550 
32   945  494 
33   354  979 
34   803  32  
35   819  343 
36   816  274 
37   422  243 
38   788  139 
39   438  516 
40   540  698 
41   883  426 
42   326  143 
43   789  215 
44   897  68  
45   164  876 
46   861  928 
47   718  148 
48   691  884 
49   185  203 
50   986  155 
51   529  28  
52   488  959 
53   890  423 
54   658  126 
55   611  443 
56   465  868 
57   90   242 
58   557  726 
59   870  50  
60   864  981 
61   100  37  
62   980  735 
63   221  362 
64   142  172 
65   490  437 
66   722  926 
67   14   887 
68   513  962 
69   686  977 
70   324  70  
71   635  728 
72   373  366 
73   105  0   
74   56   744 
75   195  542 
76   649  720 
77   896  256 
78   654  468 
79   550  812 
80   491  18  
81   308  153 
82   957  609 
83   76   30  
84   974  3   
85   760  470 
86   602  237 
87   978  11  
88   251  867 
89   420  807 
90   4    873 
91   27   469 
92   859  973 
93   255  716 
94   324  662 
95   276  517 
96   1    322 
97   529  710 
98   419  141 
99   720  361 
100  366  13  
101  369  698 
DEMAND_SECTION
1    0   
2    1   
3    1   
4    1   
5    1   
6    1   
7    1   
8    1   
9    1   
10   1   
11   1   
12   1   
13   1   
14   1   
15   1   
16   1   
17   1   
18   1   
19   1   
20   1   
21   1   
22   1   
23   1   
24   1   
25   1   
26   1   
27   1   
28   1   
29   1   
30   1   
31   1   
32   1   
33   1   
34   1   
35   1   
36   1   
37   1   
38   1   
39   1   
40   1   
41   1   
42   1   
43   1   
44   1   
45   1   
46   1   
47   1   
48   1   
49   1   
50   1   
51   1   
52   1   
53   1   
54   1   
55   1   
56   1   
57   1   
58   1   
59   1   
60   1   
61   1   
62   1   
63   1   
64   1   
65   1   
66   1   
67   1   
68   1   
69   1   
70   1   
71   1   
72   1   
73   1   
74   1   
75   1   
76   1   
77   1   
78   1   
79   1   
80   1   
81   1   
82   1   
83   1   
84   1   
85   1   
86   1   
87   1   
88   1   
89   1   
90   1   
91   1   
92   1   
93   1   
94   1   
95   1   
96   1   
97   1   
98   1   
99   1   
100  1   
101  1   
DEPOT_SECTION
1
-1
EOF
