data/CVRPLIB/Vrp-Set-XML100/solutions/XML100_3114_03.sol
Route #1: 56 2 20 95 90 30 5 74 94 8 62 48 63
Route #2: 84 31 81 61 22 45 91 59 15 12 65 19 47
Route #3: 53 46 42 35 34 52 40 14 9 98 13 85 97
Route #4: 82 60 80 41 4 69 16 99 72
Route #5: 79 50 33 58 43 83 86 49 3 76 29 18 37
Route #6: 93 92 87 32 1 44 27 66 89 11 24 73 17
Route #7: 6 38 78 25 68 7 67 51 55 10 88 100 28
Route #8: 36 54 77 26 75 70 57 96 39 21 23 64 71
Cost 17161
